

******************************************************************************
This program contains Ipopt, a library for large-scale nonlinear optimization.
 Ipopt is released as open source code under the Eclipse Public License (EPL).
         For more information visit http://projects.coin-or.org/Ipopt
******************************************************************************

This is Ipopt version 3.12.8, running with linear solver mumps.
NOTE: Other linear solvers might be more efficient (see Ipopt documentation).

Number of nonzeros in equality constraint Jacobian...:      101
Number of nonzeros in inequality constraint Jacobian.:      262
Number of nonzeros in Lagrangian Hessian.............:      199

Total number of variables............................:       33
                     variables with only lower bounds:       12
                variables with lower and upper bounds:        0
                     variables with only upper bounds:        0
Total number of equality constraints.................:       18
Total number of inequality constraints...............:       48
        inequality constraints with only lower bounds:        0
   inequality constraints with lower and upper bounds:        0
        inequality constraints with only upper bounds:       48

iter    objective    inf_pr   inf_du lg(mu)  ||d||  lg(rg) alpha_du alpha_pr  ls
   0  7.8010000e+01 5.29e+02 1.12e+00  -1.0 0.00e+00    -  0.00e+00 0.00e+00   0
   1  7.7243219e+01 5.19e+02 5.72e+01  -1.0 6.00e+00   2.0 1.00e+00 1.97e-02h  1
   2  7.7226194e+01 5.18e+02 2.39e+03  -1.0 1.21e+01   1.5 1.77e-02 4.44e-04h  1
   3  7.7048539e+01 5.16e+02 3.71e+03  -1.0 1.99e+01   1.9 7.00e-03 4.66e-03h  1
   4  7.7034407e+01 5.16e+02 4.54e+04  -1.0 1.27e+01   3.3 7.43e-03 3.72e-04h  1
   5  7.6845953e+01 5.13e+02 3.90e+04  -1.0 1.40e+01   2.8 2.24e-03 4.96e-03h  1
   6  7.6762923e+01 5.12e+02 4.98e+04  -1.0 1.50e+01   3.2 4.95e-03 2.19e-03h  1
   7  7.6637719e+01 5.10e+02 7.49e+04  -1.0 1.13e+01   3.7 5.96e-03 3.31e-03h  1
   8  7.6461687e+01 5.08e+02 8.66e+04  -1.0 1.07e+01   3.2 1.24e-02 4.66e-03h  1
   9  7.6221421e+01 5.05e+02 1.63e+05  -1.0 9.87e+00   3.6 2.08e-02 6.38e-03h  1
iter    objective    inf_pr   inf_du lg(mu)  ||d||  lg(rg) alpha_du alpha_pr  ls
  10  7.5971168e+01 5.01e+02 1.61e+05  -1.0 9.03e+00   3.1 2.61e-03 6.66e-03h  1
  11  7.5689962e+01 4.98e+02 1.50e+05  -1.0 8.02e+00   3.6 3.51e-03 7.52e-03h  1
  12  7.5578821e+01 4.96e+02 3.45e+05  -1.0 7.32e+00   4.0 2.96e-02 2.98e-03h  1
  13  7.5334180e+01 4.93e+02 3.66e+05  -1.0 7.15e+00   3.5 2.98e-02 6.57e-03h  1
  14  7.2630118e+01 4.58e+02 1.46e+05  -1.0 6.69e+00   3.9 3.08e-02 7.29e-02h  1
  15  7.1391375e+01 4.42e+02 1.03e+04  -1.0 5.58e+00   4.4 1.67e-04 3.47e-02f  1
  16  6.9575311e+01 4.19e+02 2.52e+05  -1.0 5.48e+00   4.8 2.90e-02 5.17e-02h  1
  17  6.8654010e+01 4.08e+02 6.23e+05  -1.0 5.34e+00   5.2 1.06e-02 2.69e-02h  1
  18  6.7448722e+01 3.94e+02 2.17e+05  -1.0 5.27e+00   4.7 1.48e-01 3.58e-02h  1
  19  5.6006577e+01 2.69e+02 3.88e+06  -1.0 5.18e+00   5.2 3.58e-03 3.46e-01f  1
iter    objective    inf_pr   inf_du lg(mu)  ||d||  lg(rg) alpha_du alpha_pr  ls
  20  4.9296030e+01 2.07e+02 3.57e+06  -1.0 4.28e+00   5.6 2.75e-02 2.45e-01h  1
  21  4.9156993e+01 2.06e+02 3.58e+06  -1.0 3.76e+00   5.1 1.31e-02 5.79e-03h  1
  22  4.9154441e+01 2.06e+02 3.64e+06  -1.0 3.75e+00   5.5 3.09e-02 1.06e-04h  1
  23  4.5792110e+01 1.78e+02 2.65e+06  -1.0 3.75e+00   5.0 1.81e-03 1.40e-01f  1
  24  4.5761363e+01 1.78e+02 4.39e+06  -1.0 3.48e+00   5.5 5.60e-01 1.38e-03h  1
  25  3.7730460e+01 1.20e+02 2.40e+06  -1.0 3.48e+00   5.0 9.26e-03 3.61e-01h  1
  26  3.7650925e+01 1.19e+02 2.38e+06  -1.0 2.85e+00   5.4 9.94e-05 4.36e-03h  1
  27  3.7650075e+01 1.19e+02 2.38e+06  -1.0 2.85e+00   4.9 4.90e-04 4.77e-05h  1
  28r 3.7650075e+01 1.19e+02 1.00e+03   2.1 0.00e+00   5.4 0.00e+00 3.82e-07R  2
  29r 3.7235858e+01 1.13e+02 1.00e+03   2.1 1.04e+05    -  1.85e-04 5.74e-05f  1
iter    objective    inf_pr   inf_du lg(mu)  ||d||  lg(rg) alpha_du alpha_pr  ls
  30r 2.5942111e+01 2.98e+01 1.00e+03   0.7 7.45e+04    -  1.94e-04 1.50e-03f  1
  31  2.5917928e+01 2.97e+01 9.16e+00  -1.0 1.11e+01    -  1.44e-02 1.91e-03f  1
  32  2.5708248e+01 2.93e+01 4.93e+00  -1.0 9.12e+00    -  3.25e-02 1.50e-02f  1
  33  2.5067065e+01 2.77e+01 1.05e+01  -1.0 9.77e+00    -  2.07e-02 4.96e-02h  1
  34  2.4876117e+01 2.74e+01 1.97e+01  -1.0 1.55e+01    -  4.56e-02 1.24e-02h  1
  35  2.4121712e+01 2.59e+01 1.87e+01  -1.0 9.75e+00    -  2.09e-02 5.40e-02f  1
  36  2.3247805e+01 2.41e+01 1.01e+01  -1.0 6.39e+00    -  1.72e-02 7.13e-02h  1
  37  2.3211354e+01 2.40e+01 6.30e+02  -1.0 2.50e+00   4.9 3.40e-03 3.21e-03h  1
  38  2.3210896e+01 2.40e+01 1.73e+03  -1.0 2.44e+00   4.4 1.24e-02 4.07e-05h  1
  39  2.3186526e+01 2.40e+01 1.14e+04  -1.0 2.27e+00   3.9 3.95e-02 2.23e-03h  1
iter    objective    inf_pr   inf_du lg(mu)  ||d||  lg(rg) alpha_du alpha_pr  ls
  40  2.3105572e+01 2.38e+01 1.19e+04  -1.0 2.33e+00   3.5 1.53e-02 7.46e-03h  1
  41  2.2715846e+01 2.29e+01 1.20e+04  -1.0 2.43e+00   3.0 8.65e-02 3.65e-02h  1
  42  2.2571606e+01 2.26e+01 1.20e+04  -1.0 4.10e+00   2.5 7.35e-03 1.46e-02h  1
  43  2.2536622e+01 2.25e+01 1.21e+04  -1.0 2.61e+00   2.9 4.86e-02 3.45e-03h  1
  44  2.1035195e+01 1.91e+01 1.30e+04  -1.0 4.99e+00   2.5 2.05e-02 1.58e-01f  1
  45  1.9082384e+01 1.52e+01 1.01e+04  -1.0 1.48e+00   2.9 2.31e-01 2.15e-01h  1
  46  1.9062971e+01 1.52e+01 1.00e+04  -1.0 1.14e+00   3.3 6.87e-03 2.42e-03h  1
  47  1.9062658e+01 1.52e+01 3.36e+04  -1.0 4.17e+00   2.8 1.11e-01 4.59e-05h  1
  48  1.8884458e+01 1.47e+01 1.98e+04  -1.0 1.05e+01   3.3 6.12e-04 2.79e-02h  1
  49  1.8851891e+01 1.47e+01 4.32e+04  -1.0 9.74e+01   2.8 7.26e-03 9.30e-04h  1
iter    objective    inf_pr   inf_du lg(mu)  ||d||  lg(rg) alpha_du alpha_pr  ls
  50  1.8849274e+01 1.47e+01 4.30e+04  -1.0 1.26e+01   3.2 1.07e-01 3.62e-04h  1
  51  1.8792326e+01 1.47e+01 4.74e+04  -1.0 2.63e+01   2.7 8.38e-03 3.86e-03h  1
  52  1.8763154e+01 1.46e+01 4.02e+04  -1.0 1.40e+01   3.2 5.23e-02 4.36e-03f  1
  53  1.8544041e+01 1.44e+01 3.75e+04  -1.0 2.22e+01   2.7 1.29e-02 1.66e-02f  1
  54  1.8535218e+01 1.43e+01 3.60e+04  -1.0 9.36e+00   3.1 2.19e-02 1.25e-03h  1
  55  1.8532645e+01 1.43e+01 3.75e+04  -1.0 3.05e+01   2.6 4.97e-03 1.50e-04h  1
  56  1.6151371e+01 9.97e+00 3.58e+04  -1.0 9.60e+00   3.1 1.63e-04 3.32e-01f  1
  57  1.6098916e+01 9.88e+00 3.55e+04  -1.0 1.50e+00   3.5 2.48e-02 8.45e-03h  1
  58  1.6087663e+01 9.86e+00 3.54e+04  -1.0 2.39e+00   3.0 6.10e-03 1.91e-03h  1
  59  1.5605770e+01 9.11e+00 3.27e+04  -1.0 1.60e+00   3.4 1.15e-01 7.73e-02f  1
iter    objective    inf_pr   inf_du lg(mu)  ||d||  lg(rg) alpha_du alpha_pr  ls
  60  1.5522797e+01 8.98e+00 3.22e+04  -1.0 1.48e+00   3.0 6.91e-04 1.44e-02f  1
  61  1.5521942e+01 8.98e+00 3.22e+04  -1.0 1.35e+00   3.4 3.00e-03 1.45e-04h  1
  62  1.5521818e+01 8.98e+00 3.22e+04  -1.0 6.79e+01   2.9 4.66e-05 1.72e-05h  1
  63r 1.5521818e+01 8.98e+00 1.00e+03   1.0 0.00e+00   3.3 0.00e+00 3.01e-07R  4
  64r 1.3567748e+01 5.02e+00 9.99e+02   1.0 8.42e+03    -  8.60e-04 5.66e-04f  1
  65  1.3550355e+01 5.00e+00 7.12e+01  -1.0 7.57e+00    -  1.78e-01 3.05e-03f  1
  66  1.3551889e+01 4.98e+00 7.21e+01  -1.0 2.24e+01    -  4.26e-03 4.02e-03f  1
  67  1.3409163e+01 4.77e+00 9.28e+01  -1.0 2.19e+01    -  5.80e-02 4.24e-02f  1
  68  1.3409081e+01 4.76e+00 1.20e+02  -1.0 1.93e+01    -  3.07e-02 1.54e-03h  1
  69  1.3378033e+01 4.56e+00 1.03e+02  -1.0 1.88e+01    -  1.02e-02 4.26e-02f  1
iter    objective    inf_pr   inf_du lg(mu)  ||d||  lg(rg) alpha_du alpha_pr  ls
  70  1.3376091e+01 4.56e+00 4.57e+02  -1.0 1.39e+01    -  2.52e-02 6.04e-04h  1
  71  1.3352033e+01 4.54e+00 9.87e+01  -1.0 6.02e+01    -  4.26e-05 3.72e-03h  1
  72  1.3351811e+01 4.54e+00 8.74e+03  -1.0 3.39e+01   2.9 1.02e-03 3.65e-05h  1
  73  1.3345262e+01 4.54e+00 1.52e+04  -1.0 5.82e+01   2.4 1.76e-03 7.77e-04h  1
  74  1.3319021e+01 4.53e+00 1.04e+04  -1.0 5.36e+01   1.9 1.15e-04 2.65e-03h  1
  75  1.3316110e+01 4.52e+00 4.01e+04  -1.0 4.21e+01   2.3 7.29e-03 2.73e-04h  1
  76  1.3314653e+01 4.52e+00 4.03e+04  -1.0 9.20e+02   1.8 1.17e-05 4.02e-05h  1
  77  1.3313686e+01 4.52e+00 8.06e+04  -1.0 4.35e+01   2.3 1.28e-02 8.26e-05h  1
  78  1.3273181e+01 4.52e+00 8.30e+04  -1.0 4.46e+02   1.8 6.51e-05 6.13e-04h  1
  79  1.3268323e+01 4.52e+00 8.28e+04  -1.0 6.91e+01   1.3 1.48e-03 2.55e-04h  1
iter    objective    inf_pr   inf_du lg(mu)  ||d||  lg(rg) alpha_du alpha_pr  ls
  80  1.3211265e+01 4.50e+00 8.97e+04  -1.0 4.23e+01   1.7 1.90e-02 4.22e-03h  1
  81  1.3170091e+01 4.48e+00 1.36e+05  -1.0 3.56e+01   2.2 3.70e-02 3.60e-03h  1
  82  1.3087994e+01 4.45e+00 1.32e+05  -1.0 4.64e+01   1.7 4.29e-03 7.66e-03h  1
  83  1.3085826e+01 4.45e+00 1.32e+05  -1.0 6.23e+01   1.2 2.79e-03 1.67e-04h  1
  84  1.2949607e+01 4.39e+00 1.40e+05  -1.0 4.39e+01   1.6 3.52e-02 1.29e-02h  1
  85  1.2948090e+01 4.39e+00 1.71e+05  -1.0 3.30e+01   2.1 2.10e-02 1.97e-04h  1
  86  1.2701733e+01 4.23e+00 1.60e+05  -1.0 3.11e+01   1.6 8.35e-04 3.47e-02f  1
  87  1.2675086e+01 4.20e+00 2.34e+05  -1.0 2.60e+01   2.0 1.01e-01 5.62e-03h  1
  88  1.2672234e+01 4.19e+00 2.21e+05  -1.0 4.66e+01   1.5 7.46e-02 2.21e-03h  1
  89  1.2674287e+01 4.19e+00 2.23e+05  -1.0 5.84e+01   2.0 3.67e-03 7.23e-04h  1
iter    objective    inf_pr   inf_du lg(mu)  ||d||  lg(rg) alpha_du alpha_pr  ls
  90  1.2712923e+01 4.18e+00 2.24e+05  -1.0 4.14e+02   1.5 2.86e-05 6.32e-04h  1
  91  1.2423698e+01 4.14e+00 2.19e+05  -1.0 3.01e+02   1.0 1.74e-05 6.99e-03f  1
  92  1.2418731e+01 4.14e+00 1.88e+05  -1.0 9.21e+02    -  1.60e-02 2.61e-05h  1
  93  1.2405546e+01 4.11e+00 1.76e+05  -1.0 3.45e+01    -  4.10e-02 7.16e-03h  1
  94  1.2403560e+01 4.11e+00 1.33e+06  -1.0 2.09e+02    -  5.68e-03 7.52e-05h  1
  95  1.2407095e+01 4.11e+00 1.70e+05  -1.0 1.66e+03    -  2.10e-07 2.01e-05h  1
  96  1.2407184e+01 4.11e+00 1.70e+05  -1.0 3.87e+02    -  2.16e-06 2.91e-06f  2
  97  1.2407387e+01 4.11e+00 1.70e+05  -1.0 6.84e+02    -  3.70e-06 2.30e-06f  2
  98  1.2406687e+01 4.11e+00 1.72e+06  -1.0 3.82e+02    -  2.60e-06 1.88e-04f  1
  99  1.2508499e+01 4.09e+00 7.56e+05  -1.0 3.45e+02    -  4.85e-04 2.75e-03f  1
iter    objective    inf_pr   inf_du lg(mu)  ||d||  lg(rg) alpha_du alpha_pr  ls
 100  1.2694144e+01 4.03e+00 9.15e+05  -1.0 1.29e+02    -  1.12e-02 1.44e-02h  1
 101  1.2865264e+01 3.91e+00 9.13e+05  -1.0 7.48e+01    -  1.68e-02 2.94e-02f  1
 102  1.2865835e+01 3.91e+00 7.94e+05  -1.0 5.20e+01    -  1.09e-01 2.25e-04h  1
 103  1.2867977e+01 3.91e+00 7.93e+05  -1.0 1.89e+02    -  1.42e-04 8.17e-05h  1
 104  1.2873428e+01 3.91e+00 7.94e+05  -1.0 1.50e+04    -  1.46e-08 2.28e-06f  1
 105  1.2934250e+01 3.91e+00 7.95e+05  -1.0 1.91e+03    -  1.05e-06 2.07e-04f  1
 106  1.2989468e+01 3.91e+00 7.95e+05  -1.0 1.71e+03    -  1.84e-04 1.87e-04h  1
 107  1.2989600e+01 3.91e+00 7.95e+05  -1.0 1.37e+03    -  1.87e-06 6.66e-07f  3
 108  1.2921009e+01 3.89e+00 8.04e+05  -1.0 2.35e+02    -  6.11e-07 3.30e-03f  1
 109  1.2919759e+01 3.89e+00 7.99e+05  -1.0 3.45e+02    -  2.16e-03 2.44e-05h  1
iter    objective    inf_pr   inf_du lg(mu)  ||d||  lg(rg) alpha_du alpha_pr  ls
 110r 1.2919759e+01 3.89e+00 1.00e+03   0.6 0.00e+00    -  0.00e+00 2.62e-07R  3
 111r 1.2901866e+01 3.88e+00 1.00e+03   0.6 7.02e+03    -  3.55e-04 3.42e-05f  1
 112r 1.2878648e+01 3.84e+00 1.01e+03   0.6 7.92e+03    -  4.66e-04 5.82e-05f  1
 113r 1.2761336e+01 3.88e+00 1.01e+03   0.6 7.52e+03    -  3.46e-04 4.25e-04f  1
 114r 1.2758560e+01 3.91e+00 1.01e+03   0.6 1.48e+04    -  1.54e-04 1.04e-04f  1
 115r 1.2757183e+01 3.96e+00 1.01e+03   0.6 7.52e+03    -  6.02e-05 2.64e-04f  1
 116r 1.2714587e+01 4.00e+00 1.01e+03   0.6 1.09e+04    -  7.16e-04 2.97e-04f  1
 117r 1.2613626e+01 3.99e+00 1.00e+03   0.6 6.70e+03    -  4.08e-04 2.07e-03f  1
 118r 1.2855118e+01 4.00e+00 1.00e+03   0.6 1.89e+03    -  1.36e-03 1.76e-03f  1
 119r 1.3303889e+01 4.00e+00 1.01e+03   0.6 2.93e+03    -  7.74e-04 3.14e-03f  1
iter    objective    inf_pr   inf_du lg(mu)  ||d||  lg(rg) alpha_du alpha_pr  ls
 120r 1.3223141e+01 4.00e+00 1.01e+03   0.6 1.73e+05  -2.0 8.54e-06 7.02e-06f  1
 121r 1.2779858e+01 4.00e+00 1.01e+03   0.6 1.07e+04    -  1.15e-03 6.60e-04f  1
 122r 1.2855092e+01 4.00e+00 1.05e+03   0.6 8.50e+02    -  7.59e-03 7.38e-04f  1
 123r 1.4377444e+01 5.61e+00 1.15e+03   0.6 1.32e+03    -  1.93e-02 8.80e-03f  1
 124r 1.4500732e+01 5.62e+00 1.15e+03   0.6 1.32e+03    -  9.56e-04 6.64e-04f  1
 125r 1.7602999e+01 1.37e+01 1.10e+03   0.6 2.15e+03    -  1.21e-03 1.00e-02f  1
 126r 1.7705643e+01 1.37e+01 1.29e+03   0.6 2.72e+02    -  2.91e-02 2.87e-03f  1
 127r 1.9014564e+01 1.35e+01 1.62e+03   0.6 2.35e+02    -  8.39e-02 4.35e-02f  1
 128r 1.9382756e+01 1.33e+01 1.45e+03   0.6 1.38e+02    -  9.33e-04 1.78e-02f  1
 129r 2.0014968e+01 1.29e+01 1.41e+03   0.6 1.43e+02    -  3.77e-02 3.35e-02f  1
iter    objective    inf_pr   inf_du lg(mu)  ||d||  lg(rg) alpha_du alpha_pr  ls
 130r 2.0658676e+01 1.23e+01 1.33e+03   0.6 9.83e+01    -  4.04e-02 4.83e-02f  1
 131r 2.0548141e+01 1.20e+01 3.99e+03   0.6 3.09e+01    -  5.87e-01 3.24e-02f  1
 132r 1.9264580e+01 4.03e+00 5.45e+02   0.6 1.56e+01    -  1.86e-01 7.61e-01f  1
 133r 1.7017485e+01 4.01e+00 4.07e+02   0.6 1.83e+01    -  6.94e-01 1.00e+00f  1
 134r 1.9586851e+01 4.02e+00 6.56e+02   0.6 3.14e+01    -  3.20e-01 1.00e+00f  1
 135r 1.9874872e+01 4.01e+00 1.56e+02   0.6 2.18e+01    -  6.23e-01 1.00e+00f  1
 136r 1.6874715e+01 4.00e+00 5.21e+01  -0.1 3.24e+01    -  7.38e-01 1.00e+00f  1
 137r 1.7191511e+01 4.00e+00 4.22e+01  -0.1 3.67e+00  -1.6 8.54e-01 1.00e+00f  1
 138r 1.7245165e+01 4.00e+00 4.43e+01  -0.8 1.79e-01   0.7 4.70e-01 1.00e+00f  1
 139r 1.7245854e+01 4.00e+00 1.25e+02  -0.8 1.84e-01   1.1 9.79e-01 8.62e-01f  1
iter    objective    inf_pr   inf_du lg(mu)  ||d||  lg(rg) alpha_du alpha_pr  ls
 140r 1.7243185e+01 4.00e+00 5.88e+02  -0.8 7.72e-02   1.5 7.73e-01 1.00e+00f  1
 141r 1.7231912e+01 3.98e+00 6.93e+01  -0.8 4.49e-01   1.0 9.42e-01 1.00e+00f  1
 142r 1.7229823e+01 3.98e+00 5.83e+00  -0.8 2.03e-01   1.5 1.00e+00 1.00e+00f  1
 143r 1.7207295e+01 3.89e+00 4.73e+02  -1.5 1.39e+00   1.0 4.67e-01 9.23e-01f  1
 144r 1.7206760e+01 3.82e+00 1.60e+01  -1.5 6.29e-01   1.4 1.00e+00 9.74e-01f  1
 145r 1.7161549e+01 2.77e+00 4.68e+02  -1.5 5.72e+00   0.9 4.37e-01 7.97e-01f  1
 146  1.7389338e+01 1.28e+00 1.29e+01  -1.0 1.28e+01    -  3.64e-01 3.92e-01f  1
 147  1.7541003e+01 3.34e-01 1.31e+01  -1.0 4.52e+00    -  7.62e-01 1.00e+00h  1
 148  1.6352075e+01 3.30e-01 9.36e+00  -1.0 4.77e+00    -  5.75e-01 1.00e+00h  1
 149  1.4980833e+01 1.42e+00 2.84e+00  -1.0 8.22e+00    -  6.79e-01 1.00e+00h  1
iter    objective    inf_pr   inf_du lg(mu)  ||d||  lg(rg) alpha_du alpha_pr  ls
 150  1.4698685e+01 8.86e-01 7.26e-01  -1.0 1.06e+01    -  8.53e-01 1.00e+00f  1
 151  1.5796203e+01 1.97e+00 5.66e-01  -1.0 2.18e+01    -  7.53e-01 1.00e+00h  1
 152  1.6652729e+01 1.39e+00 6.25e-02  -1.0 2.52e+01    -  1.00e+00 1.00e+00h  1
 153  1.6834523e+01 4.00e-01 9.32e-03  -1.0 6.99e+00    -  1.00e+00 1.00e+00h  1
 154  1.6875410e+01 9.57e-03 1.30e-04  -1.0 1.05e+00    -  1.00e+00 1.00e+00h  1
 155  1.4200977e+01 1.90e-01 3.30e-01  -2.5 1.64e+02    -  1.00e+00 3.27e-01f  1
 156  1.2761899e+01 1.52e-01 6.10e-01  -2.5 3.67e+01    -  1.00e+00 5.72e-01h  1
 157  1.2226268e+01 6.12e-02 3.53e-01  -2.5 6.71e+00    -  1.00e+00 7.05e-01h  1
 158  1.2047608e+01 8.08e-03 7.27e-03  -2.5 1.40e+00    -  1.00e+00 1.00e+00h  1
 159  1.2001777e+01 2.30e-04 6.72e-04  -3.8 5.56e-01    -  1.00e+00 9.90e-01h  1
iter    objective    inf_pr   inf_du lg(mu)  ||d||  lg(rg) alpha_du alpha_pr  ls
 160  1.2002557e+01 1.92e-07 7.59e-05  -3.8 1.36e-02    -  1.00e+00 1.00e+00h  1
 161  1.2000109e+01 5.19e-07 1.13e-03  -5.7 3.04e-02    -  1.00e+00 9.81e-01h  1
 162  1.2000106e+01 4.76e-10 3.60e-01  -5.7 1.18e-04    -  8.82e-01 1.00e+00f  1
 163  1.2000106e+01 6.25e-10 6.58e-01  -5.7 3.62e-02    -  1.00e+00 6.90e-03h  3
 164  1.2000097e+01 8.46e-10 1.25e-06  -5.7 3.12e-04    -  1.00e+00 1.00e+00h  1
 165  1.2000079e+01 2.69e-10 2.74e-01  -8.6 2.76e-04    -  1.00e+00 6.99e-01h  1
 166  1.2000075e+01 3.24e-11 1.31e-01  -8.6 4.80e-05    -  1.00e+00 8.82e-01f  1
 167  1.2000075e+01 8.55e-13 1.04e-08  -8.6 1.24e-05    -  1.00e+00 1.00e+00f  1
 168  1.2000075e+01 6.26e-14 9.90e-11  -9.0 2.27e-06    -  1.00e+00 1.00e+00h  1

Number of Iterations....: 168

                                   (scaled)                 (unscaled)
Objective...............:   1.2000074880088246e+01    1.2000074880088246e+01
Dual infeasibility......:   9.8953126075052023e-11    9.8953126075052023e-11
Constraint violation....:   6.2616578588858829e-14    6.2616578588858829e-14
Complementarity.........:   9.4096818344945283e-10    9.4096818344945283e-10
Overall NLP error.......:   9.4096818344945283e-10    9.4096818344945283e-10


Number of objective function evaluations             = 186
Number of objective gradient evaluations             = 134
Number of equality constraint evaluations            = 186
Number of inequality constraint evaluations          = 186
Number of equality constraint Jacobian evaluations   = 172
Number of inequality constraint Jacobian evaluations = 172
Number of Lagrangian Hessian evaluations             = 168
Total CPU secs in IPOPT (w/o function evaluations)   =      0.123
Total CPU secs in NLP function evaluations           =      0.006

EXIT: Optimal Solution Found.
 
Ipopt 3.12.8: Optimal Solution Found
